\ENCODING=ISO-8859-1
\Problem name: ilog.cplex

Minimize
 obj: 21 x(0,1) + 17.7 x(0,2) + 21 x(0,3) + 22 x(0,4) + 22.5 x(0,5)
      + 17.7 x(0,6) + 21 x(0,7) + 21 x(0,8) + 21 x(0,9) + 21 x(0,10)
      + 21 x(0,11) + 13.5 x(0,12) + 21 x(1,0) + 2.5 x(1,2) + 19.6 x(1,3)
      + 20.5 x(1,4) + 20.8 x(1,5) + 2.5 x(1,6) + 19.6 x(1,7) + 19.6 x(1,8)
      + 19.6 x(1,9) + 19.6 x(1,10) + 19.6 x(1,11) + 5.5 x(1,12) + 17.7 x(2,0)
      + 2.5 x(2,1) + 17.5 x(2,3) + 18.1 x(2,4) + 18.3 x(2,5) + 4.7 x(2,6)
      + 17.5 x(2,7) + 17.5 x(2,8) + 17.5 x(2,9) + 17.5 x(2,10) + 17.5 x(2,11)
      + 9 x(2,12) + 21 x(3,0) + 19.6 x(3,1) + 17.5 x(3,2) + 21.6 x(3,4)
      + 22 x(3,5) + 2.6 x(3,6) + 20.8 x(3,7) + 20.8 x(3,8) + 20.8 x(3,9)
      + 20.8 x(3,10) + 20.8 x(3,11) + 4 x(3,12) + 22 x(4,0) + 20.5 x(4,1)
      + 18.1 x(4,2) + 21.6 x(4,3) + 22 x(4,5) + 2.6 x(4,6) + 20.8 x(4,7)
      + 20.8 x(4,8) + 20.8 x(4,9) + 20.8 x(4,10) + 20.8 x(4,11) + 4 x(4,12)
      + 22.5 x(5,0) + 20.8 x(5,1) + 18.3 x(5,2) + 22 x(5,3) + 22 x(5,4)
      + 2.6 x(5,6) + 19.3 x(5,7) + 19.3 x(5,8) + 19.3 x(5,9) + 19.3 x(5,10)
      + 19.3 x(5,11) + 6 x(5,12) + 17.7 x(6,0) + 2.5 x(6,1) + 4.7 x(6,2)
      + 2.6 x(6,3) + 2.6 x(6,4) + 2.6 x(6,5) + 10.3 x(6,7) + 10.3 x(6,8)
      + 10.3 x(6,9) + 10.3 x(6,10) + 10.3 x(6,11) + 13.4 x(6,12) + 21 x(7,0)
      + 19.6 x(7,1) + 17.5 x(7,2) + 20.8 x(7,3) + 20.8 x(7,4) + 19.3 x(7,5)
      + 10.3 x(7,6) + 10.3 x(7,8) + 10.3 x(7,9) + 10.3 x(7,10) + 10.3 x(7,11)
      + 13.4 x(7,12) + 21 x(8,0) + 19.6 x(8,1) + 17.5 x(8,2) + 20.8 x(8,3)
      + 20.8 x(8,4) + 19.3 x(8,5) + 10.3 x(8,6) + 10.3 x(8,7) + 20.8 x(8,9)
      + 20.8 x(8,10) + 20.8 x(8,11) + 4 x(8,12) + 21 x(9,0) + 19.6 x(9,1)
      + 17.5 x(9,2) + 20.8 x(9,3) + 20.8 x(9,4) + 19.3 x(9,5) + 10.3 x(9,6)
      + 10.3 x(9,7) + 20.8 x(9,8) + 19.3 x(9,10) + 19.3 x(9,11) + 6 x(9,12)
      + 21 x(10,0) + 19.6 x(10,1) + 17.5 x(10,2) + 20.8 x(10,3) + 20.8 x(10,4)
      + 19.3 x(10,5) + 10.3 x(10,6) + 10.3 x(10,7) + 20.8 x(10,8)
      + 19.3 x(10,9) + 19.3 x(10,11) + 6 x(10,12) + 21 x(11,0) + 19.6 x(11,1)
      + 17.5 x(11,2) + 20.8 x(11,3) + 20.8 x(11,4) + 19.3 x(11,5)
      + 10.3 x(11,6) + 10.3 x(11,7) + 20.8 x(11,8) + 19.3 x(11,9)
      + 19.3 x(11,10) + 7.5 x(11,12) + 13.5 x(12,0) + 5.5 x(12,1) + 9 x(12,2)
      + 4 x(12,3) + 4 x(12,4) + 6 x(12,5) + 13.4 x(12,6) + 13.4 x(12,7)
      + 4 x(12,8) + 6 x(12,9) + 6 x(12,10) + 7.5 x(12,11) - 74.6 alpha_1
      - 42 alpha_3 - 51 alpha_4 - 62.8 alpha_5
Subject To
 c1:   x(1,0) + x(1,2) + x(1,3) + x(1,4) + x(1,5) + x(1,6) + x(1,7) + x(1,8)
       + x(1,9) + x(1,10) + x(1,11) + x(1,12) - alpha_1  = 0
 c2:   x(2,0) + x(2,1) + x(2,3) + x(2,4) + x(2,5) + x(2,6) + x(2,7) + x(2,8)
       + x(2,9) + x(2,10) + x(2,11) + x(2,12) - alpha_2  = 0
 c3:   x(3,0) + x(3,1) + x(3,2) + x(3,4) + x(3,5) + x(3,6) + x(3,7) + x(3,8)
       + x(3,9) + x(3,10) + x(3,11) + x(3,12) - alpha_3  = 0
 c4:   x(4,0) + x(4,1) + x(4,2) + x(4,3) + x(4,5) + x(4,6) + x(4,7) + x(4,8)
       + x(4,9) + x(4,10) + x(4,11) + x(4,12) - alpha_4  = 0
 c5:   x(5,0) + x(5,1) + x(5,2) + x(5,3) + x(5,4) + x(5,6) + x(5,7) + x(5,8)
       + x(5,9) + x(5,10) + x(5,11) + x(5,12) - alpha_5  = 0
 c6:   x(6,0) + x(6,1) + x(6,2) + x(6,3) + x(6,4) + x(6,5) + x(6,7) + x(6,8)
       + x(6,9) + x(6,10) + x(6,11) + x(6,12) - alpha_6  = 0
 c7:   x(7,0) + x(7,1) + x(7,2) + x(7,3) + x(7,4) + x(7,5) + x(7,6) + x(7,8)
       + x(7,9) + x(7,10) + x(7,11) + x(7,12) - alpha_7  = 0
 c8:   x(8,0) + x(8,1) + x(8,2) + x(8,3) + x(8,4) + x(8,5) + x(8,6) + x(8,7)
       + x(8,9) + x(8,10) + x(8,11) + x(8,12) - alpha_8  = 0
 c9:   x(9,0) + x(9,1) + x(9,2) + x(9,3) + x(9,4) + x(9,5) + x(9,6) + x(9,7)
       + x(9,8) + x(9,10) + x(9,11) + x(9,12) - alpha_9  = 0
 c10:  x(10,0) + x(10,1) + x(10,2) + x(10,3) + x(10,4) + x(10,5) + x(10,6)
       + x(10,7) + x(10,8) + x(10,9) + x(10,11) + x(10,12) - alpha_10  = 0
 c11:  x(11,0) + x(11,1) + x(11,2) + x(11,3) + x(11,4) + x(11,5) + x(11,6)
       + x(11,7) + x(11,8) + x(11,9) + x(11,10) + x(11,12) - alpha_11  = 0
 c12:  x(12,0) + x(12,1) + x(12,2) + x(12,3) + x(12,4) + x(12,5) + x(12,6)
       + x(12,7) + x(12,8) + x(12,9) + x(12,10) + x(12,11) - alpha_12  = 0
 c13:  x(0,1) + x(2,1) + x(3,1) + x(4,1) + x(5,1) + x(6,1) + x(7,1) + x(8,1)
       + x(9,1) + x(10,1) + x(11,1) + x(12,1) - alpha_1  = 0
 c14:  x(0,2) + x(1,2) + x(3,2) + x(4,2) + x(5,2) + x(6,2) + x(7,2) + x(8,2)
       + x(9,2) + x(10,2) + x(11,2) + x(12,2) - alpha_2  = 0
 c15:  x(0,3) + x(1,3) + x(2,3) + x(4,3) + x(5,3) + x(6,3) + x(7,3) + x(8,3)
       + x(9,3) + x(10,3) + x(11,3) + x(12,3) - alpha_3  = 0
 c16:  x(0,4) + x(1,4) + x(2,4) + x(3,4) + x(5,4) + x(6,4) + x(7,4) + x(8,4)
       + x(9,4) + x(10,4) + x(11,4) + x(12,4) - alpha_4  = 0
 c17:  x(0,5) + x(1,5) + x(2,5) + x(3,5) + x(4,5) + x(6,5) + x(7,5) + x(8,5)
       + x(9,5) + x(10,5) + x(11,5) + x(12,5) - alpha_5  = 0
 c18:  x(0,6) + x(1,6) + x(2,6) + x(3,6) + x(4,6) + x(5,6) + x(7,6) + x(8,6)
       + x(9,6) + x(10,6) + x(11,6) + x(12,6) - alpha_6  = 0
 c19:  x(0,7) + x(1,7) + x(2,7) + x(3,7) + x(4,7) + x(5,7) + x(6,7) + x(8,7)
       + x(9,7) + x(10,7) + x(11,7) + x(12,7) - alpha_7  = 0
 c20:  x(0,8) + x(1,8) + x(2,8) + x(3,8) + x(4,8) + x(5,8) + x(6,8) + x(7,8)
       + x(9,8) + x(10,8) + x(11,8) + x(12,8) - alpha_8  = 0
 c21:  x(0,9) + x(1,9) + x(2,9) + x(3,9) + x(4,9) + x(5,9) + x(6,9) + x(7,9)
       + x(8,9) + x(10,9) + x(11,9) + x(12,9) - alpha_9  = 0
 c22:  x(0,10) + x(1,10) + x(2,10) + x(3,10) + x(4,10) + x(5,10) + x(6,10)
       + x(7,10) + x(8,10) + x(9,10) + x(11,10) + x(12,10) - alpha_10  = 0
 c23:  x(0,11) + x(1,11) + x(2,11) + x(3,11) + x(4,11) + x(5,11) + x(6,11)
       + x(7,11) + x(8,11) + x(9,11) + x(10,11) + x(12,11) - alpha_11  = 0
 c24:  x(0,12) + x(1,12) + x(2,12) + x(3,12) + x(4,12) + x(5,12) + x(6,12)
       + x(7,12) + x(8,12) + x(9,12) + x(10,12) + x(11,12) - alpha_12  = 0
 c25:  x(0,1) + x(0,2) + x(0,3) + x(0,4) + x(0,5) + x(0,6) + x(0,7) + x(0,8)
       + x(0,9) + x(0,10) + x(0,11) + x(0,12)  = 1
 c26:  x(1,0) + x(2,0) + x(3,0) + x(4,0) + x(5,0) + x(6,0) + x(7,0) + x(8,0)
       + x(9,0) + x(10,0) + x(11,0) + x(12,0)  = 1
 c27:  x(0,1) - x(1,0) - x(1,2) - x(1,3) - x(1,4) - x(1,5) - x(1,6) - x(1,7)
       - x(1,8) - x(1,9) - x(1,10) - x(1,11) - x(1,12) + x(2,1) + x(3,1)
       + x(4,1) + x(5,1) + x(6,1) + x(7,1) + x(8,1) + x(9,1) + x(10,1)
       + x(11,1) + x(12,1)  = 0
 c28:  x(0,2) + x(1,2) - x(2,0) - x(2,1) - x(2,3) - x(2,4) - x(2,5) - x(2,6)
       - x(2,7) - x(2,8) - x(2,9) - x(2,10) - x(2,11) - x(2,12) + x(3,2)
       + x(4,2) + x(5,2) + x(6,2) + x(7,2) + x(8,2) + x(9,2) + x(10,2)
       + x(11,2) + x(12,2)  = 0
 c29:  x(0,3) + x(1,3) + x(2,3) - x(3,0) - x(3,1) - x(3,2) - x(3,4) - x(3,5)
       - x(3,6) - x(3,7) - x(3,8) - x(3,9) - x(3,10) - x(3,11) - x(3,12)
       + x(4,3) + x(5,3) + x(6,3) + x(7,3) + x(8,3) + x(9,3) + x(10,3)
       + x(11,3) + x(12,3)  = 0
 c30:  x(0,4) + x(1,4) + x(2,4) + x(3,4) - x(4,0) - x(4,1) - x(4,2) - x(4,3)
       - x(4,5) - x(4,6) - x(4,7) - x(4,8) - x(4,9) - x(4,10) - x(4,11)
       - x(4,12) + x(5,4) + x(6,4) + x(7,4) + x(8,4) + x(9,4) + x(10,4)
       + x(11,4) + x(12,4)  = 0
 c31:  x(0,5) + x(1,5) + x(2,5) + x(3,5) + x(4,5) - x(5,0) - x(5,1) - x(5,2)
       - x(5,3) - x(5,4) - x(5,6) - x(5,7) - x(5,8) - x(5,9) - x(5,10)
       - x(5,11) - x(5,12) + x(6,5) + x(7,5) + x(8,5) + x(9,5) + x(10,5)
       + x(11,5) + x(12,5)  = 0
 c32:  x(0,6) + x(1,6) + x(2,6) + x(3,6) + x(4,6) + x(5,6) - x(6,0) - x(6,1)
       - x(6,2) - x(6,3) - x(6,4) - x(6,5) - x(6,7) - x(6,8) - x(6,9) - x(6,10)
       - x(6,11) - x(6,12) + x(7,6) + x(8,6) + x(9,6) + x(10,6) + x(11,6)
       + x(12,6)  = 0
 c33:  x(0,7) + x(1,7) + x(2,7) + x(3,7) + x(4,7) + x(5,7) + x(6,7) - x(7,0)
       - x(7,1) - x(7,2) - x(7,3) - x(7,4) - x(7,5) - x(7,6) - x(7,8) - x(7,9)
       - x(7,10) - x(7,11) - x(7,12) + x(8,7) + x(9,7) + x(10,7) + x(11,7)
       + x(12,7)  = 0
 c34:  x(0,8) + x(1,8) + x(2,8) + x(3,8) + x(4,8) + x(5,8) + x(6,8) + x(7,8)
       - x(8,0) - x(8,1) - x(8,2) - x(8,3) - x(8,4) - x(8,5) - x(8,6) - x(8,7)
       - x(8,9) - x(8,10) - x(8,11) - x(8,12) + x(9,8) + x(10,8) + x(11,8)
       + x(12,8)  = 0
 c35:  x(0,9) + x(1,9) + x(2,9) + x(3,9) + x(4,9) + x(5,9) + x(6,9) + x(7,9)
       + x(8,9) - x(9,0) - x(9,1) - x(9,2) - x(9,3) - x(9,4) - x(9,5) - x(9,6)
       - x(9,7) - x(9,8) - x(9,10) - x(9,11) - x(9,12) + x(10,9) + x(11,9)
       + x(12,9)  = 0
 c36:  x(0,10) + x(1,10) + x(2,10) + x(3,10) + x(4,10) + x(5,10) + x(6,10)
       + x(7,10) + x(8,10) + x(9,10) - x(10,0) - x(10,1) - x(10,2) - x(10,3)
       - x(10,4) - x(10,5) - x(10,6) - x(10,7) - x(10,8) - x(10,9) - x(10,11)
       - x(10,12) + x(11,10) + x(12,10)  = 0
 c37:  x(0,11) + x(1,11) + x(2,11) + x(3,11) + x(4,11) + x(5,11) + x(6,11)
       + x(7,11) + x(8,11) + x(9,11) + x(10,11) - x(11,0) - x(11,1) - x(11,2)
       - x(11,3) - x(11,4) - x(11,5) - x(11,6) - x(11,7) - x(11,8) - x(11,9)
       - x(11,10) - x(11,12) + x(12,11)  = 0
 c38:  x(0,12) + x(1,12) + x(2,12) + x(3,12) + x(4,12) + x(5,12) + x(6,12)
       + x(7,12) + x(8,12) + x(9,12) + x(10,12) + x(11,12) - x(12,0) - x(12,1)
       - x(12,2) - x(12,3) - x(12,4) - x(12,5) - x(12,6) - x(12,7) - x(12,8)
       - x(12,9) - x(12,10) - x(12,11)  = 0
 c39:  beta_1 + beta_2 + beta_3 + beta_4  = 1
 c40:  - 10000 beta_1 + y(1,1) + y(2,1) + y(3,1) + y(4,1) + y(5,1) + y(6,1)
       + y(7,1) + y(8,1) + y(9,1) + y(10,1) + y(11,1) + y(12,1) <= 0
 c41:  - 10000 beta_2 + y(1,2) + y(2,2) + y(3,2) + y(4,2) + y(5,2) + y(6,2)
       + y(7,2) + y(8,2) + y(9,2) + y(10,2) + y(11,2) + y(12,2) <= 0
 c42:  - 10000 beta_3 + y(1,3) + y(2,3) + y(3,3) + y(4,3) + y(5,3) + y(6,3)
       + y(7,3) + y(8,3) + y(9,3) + y(10,3) + y(11,3) + y(12,3) <= 0
 c43:  - 10000 beta_4 + y(1,4) + y(2,4) + y(3,4) + y(4,4) + y(5,4) + y(6,4)
       + y(7,4) + y(8,4) + y(9,4) + y(10,4) + y(11,4) + y(12,4) <= 0
 c44:  - alpha_1 + y(1,1) + y(1,2) + y(1,3) + y(1,4)  = 0
 c45:  - alpha_2 + y(2,1) + y(2,2) + y(2,3) + y(2,4)  = 0
 c46:  - alpha_3 + y(3,1) + y(3,2) + y(3,3) + y(3,4)  = 0
 c47:  - alpha_4 + y(4,1) + y(4,2) + y(4,3) + y(4,4)  = 0
 c48:  - alpha_5 + y(5,1) + y(5,2) + y(5,3) + y(5,4)  = 0
 c49:  - alpha_6 + y(6,1) + y(6,2) + y(6,3) + y(6,4)  = 0
 c50:  - alpha_7 + y(7,1) + y(7,2) + y(7,3) + y(7,4)  = 0
 c51:  - alpha_8 + y(8,1) + y(8,2) + y(8,3) + y(8,4)  = 0
 c52:  - alpha_9 + y(9,1) + y(9,2) + y(9,3) + y(9,4)  = 0
 c53:  - alpha_10 + y(10,1) + y(10,2) + y(10,3) + y(10,4)  = 0
 c54:  - alpha_11 + y(11,1) + y(11,2) + y(11,3) + y(11,4)  = 0
 c55:  - alpha_12 + y(12,1) + y(12,2) + y(12,3) + y(12,4)  = 0
 c56:  - 10000 alpha_1 + 70 y(1,1) + 120 y(1,2) + 250 y(1,3) + 380 y(1,4)
       >= -9962
 c57:  - 10000 alpha_2 + 70 y(2,1) + 120 y(2,2) + 250 y(2,3) + 380 y(2,4)
       >= -9956
 c58:  - 10000 alpha_3 + 70 y(3,1) + 120 y(3,2) + 250 y(3,3) + 380 y(3,4)
       >= -9936
 c59:  - 10000 alpha_4 + 70 y(4,1) + 120 y(4,2) + 250 y(4,3) + 380 y(4,4)
       >= -9930
 c60:  - 10000 alpha_5 + 70 y(5,1) + 120 y(5,2) + 250 y(5,3) + 380 y(5,4)
       >= -9920
 c61:  - 10000 alpha_6 + 70 y(6,1) + 120 y(6,2) + 250 y(6,3) + 380 y(6,4)
       >= -9917
 c62:  - 10000 alpha_7 + 70 y(7,1) + 120 y(7,2) + 250 y(7,3) + 380 y(7,4)
       >= -9917
 c63:  - 10000 alpha_8 + 70 y(8,1) + 120 y(8,2) + 250 y(8,3) + 380 y(8,4)
       >= -9912
 c64:  - 10000 alpha_9 + 70 y(9,1) + 120 y(9,2) + 250 y(9,3) + 380 y(9,4)
       >= -9900
 c65:  - 10000 alpha_10 + 70 y(10,1) + 120 y(10,2) + 250 y(10,3) + 380 y(10,4)
       >= -9650
 c66:  - 10000 alpha_11 + 70 y(11,1) + 120 y(11,2) + 250 y(11,3) + 380 y(11,4)
       >= -9880
 c67:  - 10000 alpha_12 + 70 y(12,1) + 120 y(12,2) + 250 y(12,3) + 380 y(12,4)
       >= -9878
 c68:  10000 alpha_1 + st(1) <= 10060
 c69:  10000 alpha_1 + st(1) >= -10000
 c70:  10000 alpha_2 + st(2) <= 10060
 c71:  10000 alpha_2 + st(2) >= -10000
 c72:  10000 alpha_3 + st(3) <= 10060
 c73:  10000 alpha_3 + st(3) >= -10000
 c74:  10000 alpha_4 + st(4) <= 10060
 c75:  10000 alpha_4 + st(4) >= -10000
 c76:  10000 alpha_5 + st(5) <= 10060
 c77:  10000 alpha_5 + st(5) >= -10000
 c78:  10000 alpha_6 + st(6) <= 10120
 c79:  10000 alpha_6 + st(6) >= -9940
 c80:  10000 alpha_7 + st(7) <= 10120
 c81:  10000 alpha_7 + st(7) >= -9940
 c82:  10000 alpha_8 + st(8) <= 10120
 c83:  10000 alpha_8 + st(8) >= -9940
 c84:  10000 alpha_9 + st(9) <= 10120
 c85:  10000 alpha_9 + st(9) >= -9940
 c86:  10000 alpha_10 + st(10) <= 10120
 c87:  10000 alpha_10 + st(10) >= -9940
 c88:  10000 alpha_11 + st(11) <= 10200
 c89:  10000 alpha_11 + st(11) >= -9950
 c90:  10000 alpha_12 + st(12) <= 10200
 c91:  10000 alpha_12 + st(12) >= -9950
 c92:  10002.5 x(1,2) + st(1) - st(2) <= 9980.4
 c93:  10019.6 x(1,3) + st(1) - st(3) <= 9980.4
 c94:  10020.5 x(1,4) + st(1) - st(4) <= 9980.4
 c95:  10020.8 x(1,5) + st(1) - st(5) <= 9980.4
 c96:  10002.5 x(1,6) + st(1) - st(6) <= 9980.4
 c97:  10019.6 x(1,7) + st(1) - st(7) <= 9980.4
 c98:  10019.6 x(1,8) + st(1) - st(8) <= 9980.4
 c99:  10019.6 x(1,9) + st(1) - st(9) <= 9980.4
 c100: 10019.6 x(1,10) + st(1) - st(10) <= 9980.4
 c101: 10019.6 x(1,11) + st(1) - st(11) <= 9980.4
 c102: 10005.5 x(1,12) + st(1) - st(12) <= 9980.4
 c103: 10002.5 x(2,1) - st(1) + st(2) <= 9995.3
 c104: 10017.5 x(2,3) + st(2) - st(3) <= 9995.3
 c105: 10018.1 x(2,4) + st(2) - st(4) <= 9995.3
 c106: 10018.3 x(2,5) + st(2) - st(5) <= 9995.3
 c107: 10004.7 x(2,6) + st(2) - st(6) <= 9995.3
 c108: 10017.5 x(2,7) + st(2) - st(7) <= 9995.3
 c109: 10017.5 x(2,8) + st(2) - st(8) <= 9995.3
 c110: 10017.5 x(2,9) + st(2) - st(9) <= 9995.3
 c111: 10017.5 x(2,10) + st(2) - st(10) <= 9995.3
 c112: 10017.5 x(2,11) + st(2) - st(11) <= 9995.3
 c113: 10009 x(2,12) + st(2) - st(12) <= 9995.3
 c114: 10019.6 x(3,1) - st(1) + st(3) <= 9979.2
 c115: 10017.5 x(3,2) - st(2) + st(3) <= 9979.2
 c116: 10021.6 x(3,4) + st(3) - st(4) <= 9979.2
 c117: 10022 x(3,5) + st(3) - st(5) <= 9979.2
 c118: 10002.6 x(3,6) + st(3) - st(6) <= 9979.2
 c119: 10020.8 x(3,7) + st(3) - st(7) <= 9979.2
 c120: 10020.8 x(3,8) + st(3) - st(8) <= 9979.2
 c121: 10020.8 x(3,9) + st(3) - st(9) <= 9979.2
 c122: 10020.8 x(3,10) + st(3) - st(10) <= 9979.2
 c123: 10020.8 x(3,11) + st(3) - st(11) <= 9979.2
 c124: 10004 x(3,12) + st(3) - st(12) <= 9979.2
 c125: 10020.5 x(4,1) - st(1) + st(4) <= 9978.4
 c126: 10018.1 x(4,2) - st(2) + st(4) <= 9978.4
 c127: 10021.6 x(4,3) - st(3) + st(4) <= 9978.4
 c128: 10022 x(4,5) + st(4) - st(5) <= 9978.4
 c129: 10002.6 x(4,6) + st(4) - st(6) <= 9978.4
 c130: 10020.8 x(4,7) + st(4) - st(7) <= 9978.4
 c131: 10020.8 x(4,8) + st(4) - st(8) <= 9978.4
 c132: 10020.8 x(4,9) + st(4) - st(9) <= 9978.4
 c133: 10020.8 x(4,10) + st(4) - st(10) <= 9978.4
 c134: 10020.8 x(4,11) + st(4) - st(11) <= 9978.4
 c135: 10004 x(4,12) + st(4) - st(12) <= 9978.4
 c136: 10020.8 x(5,1) - st(1) + st(5) <= 9979.5
 c137: 10018.3 x(5,2) - st(2) + st(5) <= 9979.5
 c138: 10022 x(5,3) - st(3) + st(5) <= 9979.5
 c139: 10022 x(5,4) - st(4) + st(5) <= 9979.5
 c140: 10002.6 x(5,6) + st(5) - st(6) <= 9979.5
 c141: 10019.3 x(5,7) + st(5) - st(7) <= 9979.5
 c142: 10019.3 x(5,8) + st(5) - st(8) <= 9979.5
 c143: 10019.3 x(5,9) + st(5) - st(9) <= 9979.5
 c144: 10019.3 x(5,10) + st(5) - st(10) <= 9979.5
 c145: 10019.3 x(5,11) + st(5) - st(11) <= 9979.5
 c146: 10006 x(5,12) + st(5) - st(12) <= 9979.5
 c147: 10002.5 x(6,1) - st(1) + st(6) <= 9988.1
 c148: 10004.7 x(6,2) - st(2) + st(6) <= 9988.1
 c149: 10002.6 x(6,3) - st(3) + st(6) <= 9988.1
 c150: 10002.6 x(6,4) - st(4) + st(6) <= 9988.1
 c151: 10002.6 x(6,5) - st(5) + st(6) <= 9988.1
 c152: 10010.3 x(6,7) + st(6) - st(7) <= 9988.1
 c153: 10010.3 x(6,8) + st(6) - st(8) <= 9988.1
 c154: 10010.3 x(6,9) + st(6) - st(9) <= 9988.1
 c155: 10010.3 x(6,10) + st(6) - st(10) <= 9988.1
 c156: 10010.3 x(6,11) + st(6) - st(11) <= 9988.1
 c157: 10013.4 x(6,12) + st(6) - st(12) <= 9988.1
 c158: 10019.6 x(7,1) - st(1) + st(7) <= 9989.7
 c159: 10017.5 x(7,2) - st(2) + st(7) <= 9989.7
 c160: 10020.8 x(7,3) - st(3) + st(7) <= 9989.7
 c161: 10020.8 x(7,4) - st(4) + st(7) <= 9989.7
 c162: 10019.3 x(7,5) - st(5) + st(7) <= 9989.7
 c163: 10010.3 x(7,6) - st(6) + st(7) <= 9989.7
 c164: 10010.3 x(7,8) + st(7) - st(8) <= 9989.7
 c165: 10010.3 x(7,9) + st(7) - st(9) <= 9989.7
 c166: 10010.3 x(7,10) + st(7) - st(10) <= 9989.7
 c167: 10010.3 x(7,11) + st(7) - st(11) <= 9989.7
 c168: 10013.4 x(7,12) + st(7) - st(12) <= 9989.7
 c169: 10019.6 x(8,1) - st(1) + st(8) <= 9979.2
 c170: 10017.5 x(8,2) - st(2) + st(8) <= 9979.2
 c171: 10020.8 x(8,3) - st(3) + st(8) <= 9979.2
 c172: 10020.8 x(8,4) - st(4) + st(8) <= 9979.2
 c173: 10019.3 x(8,5) - st(5) + st(8) <= 9979.2
 c174: 10010.3 x(8,6) - st(6) + st(8) <= 9979.2
 c175: 10010.3 x(8,7) - st(7) + st(8) <= 9979.2
 c176: 10020.8 x(8,9) + st(8) - st(9) <= 9979.2
 c177: 10020.8 x(8,10) + st(8) - st(10) <= 9979.2
 c178: 10020.8 x(8,11) + st(8) - st(11) <= 9979.2
 c179: 10004 x(8,12) + st(8) - st(12) <= 9979.2
 c180: 10019.6 x(9,1) - st(1) + st(9) <= 9980.7
 c181: 10017.5 x(9,2) - st(2) + st(9) <= 9980.7
 c182: 10020.8 x(9,3) - st(3) + st(9) <= 9980.7
 c183: 10020.8 x(9,4) - st(4) + st(9) <= 9980.7
 c184: 10019.3 x(9,5) - st(5) + st(9) <= 9980.7
 c185: 10010.3 x(9,6) - st(6) + st(9) <= 9980.7
 c186: 10010.3 x(9,7) - st(7) + st(9) <= 9980.7
 c187: 10020.8 x(9,8) - st(8) + st(9) <= 9980.7
 c188: 10019.3 x(9,10) + st(9) - st(10) <= 9980.7
 c189: 10019.3 x(9,11) + st(9) - st(11) <= 9980.7
 c190: 10006 x(9,12) + st(9) - st(12) <= 9980.7
 c191: 10019.6 x(10,1) - st(1) + st(10) <= 9980.7
 c192: 10017.5 x(10,2) - st(2) + st(10) <= 9980.7
 c193: 10020.8 x(10,3) - st(3) + st(10) <= 9980.7
 c194: 10020.8 x(10,4) - st(4) + st(10) <= 9980.7
 c195: 10019.3 x(10,5) - st(5) + st(10) <= 9980.7
 c196: 10010.3 x(10,6) - st(6) + st(10) <= 9980.7
 c197: 10010.3 x(10,7) - st(7) + st(10) <= 9980.7
 c198: 10020.8 x(10,8) - st(8) + st(10) <= 9980.7
 c199: 10019.3 x(10,9) - st(9) + st(10) <= 9980.7
 c200: 10019.3 x(10,11) + st(10) - st(11) <= 9980.7
 c201: 10006 x(10,12) + st(10) - st(12) <= 9980.7
 c202: 10019.6 x(11,1) - st(1) + st(11) <= 9981.7
 c203: 10017.5 x(11,2) - st(2) + st(11) <= 9981.7
 c204: 10020.8 x(11,3) - st(3) + st(11) <= 9981.7
 c205: 10020.8 x(11,4) - st(4) + st(11) <= 9981.7
 c206: 10019.3 x(11,5) - st(5) + st(11) <= 9981.7
 c207: 10010.3 x(11,6) - st(6) + st(11) <= 9981.7
 c208: 10010.3 x(11,7) - st(7) + st(11) <= 9981.7
 c209: 10020.8 x(11,8) - st(8) + st(11) <= 9981.7
 c210: 10019.3 x(11,9) - st(9) + st(11) <= 9981.7
 c211: 10019.3 x(11,10) - st(10) + st(11) <= 9981.7
 c212: 10007.5 x(11,12) + st(11) - st(12) <= 9981.7
 c213: 10005.5 x(12,1) - st(1) + st(12) <= 9994
 c214: 10009 x(12,2) - st(2) + st(12) <= 9994
 c215: 10004 x(12,3) - st(3) + st(12) <= 9994
 c216: 10004 x(12,4) - st(4) + st(12) <= 9994
 c217: 10006 x(12,5) - st(5) + st(12) <= 9994
 c218: 10013.4 x(12,6) - st(6) + st(12) <= 9994
 c219: 10013.4 x(12,7) - st(7) + st(12) <= 9994
 c220: 10004 x(12,8) - st(8) + st(12) <= 9994
 c221: 10006 x(12,9) - st(9) + st(12) <= 9994
 c222: 10006 x(12,10) - st(10) + st(12) <= 9994
 c223: 10007.5 x(12,11) - st(11) + st(12) <= 9994
Bounds
 0 <= x(0,1) <= 1
 0 <= x(0,2) <= 1
 0 <= x(0,3) <= 1
 0 <= x(0,4) <= 1
 0 <= x(0,5) <= 1
 0 <= x(0,6) <= 1
 0 <= x(0,7) <= 1
 0 <= x(0,8) <= 1
 0 <= x(0,9) <= 1
 0 <= x(0,10) <= 1
 0 <= x(0,11) <= 1
 0 <= x(0,12) <= 1
 0 <= x(1,0) <= 1
 0 <= x(1,2) <= 1
 0 <= x(1,3) <= 1
 0 <= x(1,4) <= 1
 0 <= x(1,5) <= 1
 0 <= x(1,6) <= 1
 0 <= x(1,7) <= 1
 0 <= x(1,8) <= 1
 0 <= x(1,9) <= 1
 0 <= x(1,10) <= 1
 0 <= x(1,11) <= 1
 0 <= x(1,12) <= 1
 0 <= x(2,0) <= 1
 0 <= x(2,1) <= 1
 0 <= x(2,3) <= 1
 0 <= x(2,4) <= 1
 0 <= x(2,5) <= 1
 0 <= x(2,6) <= 1
 0 <= x(2,7) <= 1
 0 <= x(2,8) <= 1
 0 <= x(2,9) <= 1
 0 <= x(2,10) <= 1
 0 <= x(2,11) <= 1
 0 <= x(2,12) <= 1
 0 <= x(3,0) <= 1
 0 <= x(3,1) <= 1
 0 <= x(3,2) <= 1
 0 <= x(3,4) <= 1
 0 <= x(3,5) <= 1
 0 <= x(3,6) <= 1
 0 <= x(3,7) <= 1
 0 <= x(3,8) <= 1
 0 <= x(3,9) <= 1
 0 <= x(3,10) <= 1
 0 <= x(3,11) <= 1
 0 <= x(3,12) <= 1
 0 <= x(4,0) <= 1
 0 <= x(4,1) <= 1
 0 <= x(4,2) <= 1
 0 <= x(4,3) <= 1
 0 <= x(4,5) <= 1
 0 <= x(4,6) <= 1
 0 <= x(4,7) <= 1
 0 <= x(4,8) <= 1
 0 <= x(4,9) <= 1
 0 <= x(4,10) <= 1
 0 <= x(4,11) <= 1
 0 <= x(4,12) <= 1
 0 <= x(5,0) <= 1
 0 <= x(5,1) <= 1
 0 <= x(5,2) <= 1
 0 <= x(5,3) <= 1
 0 <= x(5,4) <= 1
 0 <= x(5,6) <= 1
 0 <= x(5,7) <= 1
 0 <= x(5,8) <= 1
 0 <= x(5,9) <= 1
 0 <= x(5,10) <= 1
 0 <= x(5,11) <= 1
 0 <= x(5,12) <= 1
 0 <= x(6,0) <= 1
 0 <= x(6,1) <= 1
 0 <= x(6,2) <= 1
 0 <= x(6,3) <= 1
 0 <= x(6,4) <= 1
 0 <= x(6,5) <= 1
 0 <= x(6,7) <= 1
 0 <= x(6,8) <= 1
 0 <= x(6,9) <= 1
 0 <= x(6,10) <= 1
 0 <= x(6,11) <= 1
 0 <= x(6,12) <= 1
 0 <= x(7,0) <= 1
 0 <= x(7,1) <= 1
 0 <= x(7,2) <= 1
 0 <= x(7,3) <= 1
 0 <= x(7,4) <= 1
 0 <= x(7,5) <= 1
 0 <= x(7,6) <= 1
 0 <= x(7,8) <= 1
 0 <= x(7,9) <= 1
 0 <= x(7,10) <= 1
 0 <= x(7,11) <= 1
 0 <= x(7,12) <= 1
 0 <= x(8,0) <= 1
 0 <= x(8,1) <= 1
 0 <= x(8,2) <= 1
 0 <= x(8,3) <= 1
 0 <= x(8,4) <= 1
 0 <= x(8,5) <= 1
 0 <= x(8,6) <= 1
 0 <= x(8,7) <= 1
 0 <= x(8,9) <= 1
 0 <= x(8,10) <= 1
 0 <= x(8,11) <= 1
 0 <= x(8,12) <= 1
 0 <= x(9,0) <= 1
 0 <= x(9,1) <= 1
 0 <= x(9,2) <= 1
 0 <= x(9,3) <= 1
 0 <= x(9,4) <= 1
 0 <= x(9,5) <= 1
 0 <= x(9,6) <= 1
 0 <= x(9,7) <= 1
 0 <= x(9,8) <= 1
 0 <= x(9,10) <= 1
 0 <= x(9,11) <= 1
 0 <= x(9,12) <= 1
 0 <= x(10,0) <= 1
 0 <= x(10,1) <= 1
 0 <= x(10,2) <= 1
 0 <= x(10,3) <= 1
 0 <= x(10,4) <= 1
 0 <= x(10,5) <= 1
 0 <= x(10,6) <= 1
 0 <= x(10,7) <= 1
 0 <= x(10,8) <= 1
 0 <= x(10,9) <= 1
 0 <= x(10,11) <= 1
 0 <= x(10,12) <= 1
 0 <= x(11,0) <= 1
 0 <= x(11,1) <= 1
 0 <= x(11,2) <= 1
 0 <= x(11,3) <= 1
 0 <= x(11,4) <= 1
 0 <= x(11,5) <= 1
 0 <= x(11,6) <= 1
 0 <= x(11,7) <= 1
 0 <= x(11,8) <= 1
 0 <= x(11,9) <= 1
 0 <= x(11,10) <= 1
 0 <= x(11,12) <= 1
 0 <= x(12,0) <= 1
 0 <= x(12,1) <= 1
 0 <= x(12,2) <= 1
 0 <= x(12,3) <= 1
 0 <= x(12,4) <= 1
 0 <= x(12,5) <= 1
 0 <= x(12,6) <= 1
 0 <= x(12,7) <= 1
 0 <= x(12,8) <= 1
 0 <= x(12,9) <= 1
 0 <= x(12,10) <= 1
 0 <= x(12,11) <= 1
 0 <= alpha_1 <= 1
 0 <= alpha_2 <= 1
 0 <= alpha_3 <= 1
 0 <= alpha_4 <= 1
 0 <= alpha_5 <= 1
 0 <= alpha_6 <= 1
 0 <= alpha_7 <= 1
 0 <= alpha_8 <= 1
 0 <= alpha_9 <= 1
 0 <= alpha_10 <= 1
 0 <= alpha_11 <= 1
 0 <= alpha_12 <= 1
 0 <= beta_1 <= 1
 0 <= beta_2 <= 1
 0 <= beta_3 <= 1
 0 <= beta_4 <= 1
 0 <= y(1,1) <= 1
 0 <= y(2,1) <= 1
 0 <= y(3,1) <= 1
 0 <= y(4,1) <= 1
 0 <= y(5,1) <= 1
 0 <= y(6,1) <= 1
 0 <= y(7,1) <= 1
 0 <= y(8,1) <= 1
 0 <= y(9,1) <= 1
 0 <= y(10,1) <= 1
 0 <= y(11,1) <= 1
 0 <= y(12,1) <= 1
 0 <= y(1,2) <= 1
 0 <= y(2,2) <= 1
 0 <= y(3,2) <= 1
 0 <= y(4,2) <= 1
 0 <= y(5,2) <= 1
 0 <= y(6,2) <= 1
 0 <= y(7,2) <= 1
 0 <= y(8,2) <= 1
 0 <= y(9,2) <= 1
 0 <= y(10,2) <= 1
 0 <= y(11,2) <= 1
 0 <= y(12,2) <= 1
 0 <= y(1,3) <= 1
 0 <= y(2,3) <= 1
 0 <= y(3,3) <= 1
 0 <= y(4,3) <= 1
 0 <= y(5,3) <= 1
 0 <= y(6,3) <= 1
 0 <= y(7,3) <= 1
 0 <= y(8,3) <= 1
 0 <= y(9,3) <= 1
 0 <= y(10,3) <= 1
 0 <= y(11,3) <= 1
 0 <= y(12,3) <= 1
 0 <= y(1,4) <= 1
 0 <= y(2,4) <= 1
 0 <= y(3,4) <= 1
 0 <= y(4,4) <= 1
 0 <= y(5,4) <= 1
 0 <= y(6,4) <= 1
 0 <= y(7,4) <= 1
 0 <= y(8,4) <= 1
 0 <= y(9,4) <= 1
 0 <= y(10,4) <= 1
 0 <= y(11,4) <= 1
 0 <= y(12,4) <= 1
Generals
 x(0,1)  x(0,2)  x(0,3)  x(0,4)  x(0,5)  x(0,6)  x(0,7)  x(0,8)  x(0,9) 
 x(0,10)  x(0,11)  x(0,12)  x(1,0)  x(1,2)  x(1,3)  x(1,4)  x(1,5)  x(1,6) 
 x(1,7)  x(1,8)  x(1,9)  x(1,10)  x(1,11)  x(1,12)  x(2,0)  x(2,1)  x(2,3) 
 x(2,4)  x(2,5)  x(2,6)  x(2,7)  x(2,8)  x(2,9)  x(2,10)  x(2,11)  x(2,12) 
 x(3,0)  x(3,1)  x(3,2)  x(3,4)  x(3,5)  x(3,6)  x(3,7)  x(3,8)  x(3,9) 
 x(3,10)  x(3,11)  x(3,12)  x(4,0)  x(4,1)  x(4,2)  x(4,3)  x(4,5)  x(4,6) 
 x(4,7)  x(4,8)  x(4,9)  x(4,10)  x(4,11)  x(4,12)  x(5,0)  x(5,1)  x(5,2) 
 x(5,3)  x(5,4)  x(5,6)  x(5,7)  x(5,8)  x(5,9)  x(5,10)  x(5,11)  x(5,12) 
 x(6,0)  x(6,1)  x(6,2)  x(6,3)  x(6,4)  x(6,5)  x(6,7)  x(6,8)  x(6,9) 
 x(6,10)  x(6,11)  x(6,12)  x(7,0)  x(7,1)  x(7,2)  x(7,3)  x(7,4)  x(7,5) 
 x(7,6)  x(7,8)  x(7,9)  x(7,10)  x(7,11)  x(7,12)  x(8,0)  x(8,1)  x(8,2) 
 x(8,3)  x(8,4)  x(8,5)  x(8,6)  x(8,7)  x(8,9)  x(8,10)  x(8,11)  x(8,12) 
 x(9,0)  x(9,1)  x(9,2)  x(9,3)  x(9,4)  x(9,5)  x(9,6)  x(9,7)  x(9,8) 
 x(9,10)  x(9,11)  x(9,12)  x(10,0)  x(10,1)  x(10,2)  x(10,3)  x(10,4) 
 x(10,5)  x(10,6)  x(10,7)  x(10,8)  x(10,9)  x(10,11)  x(10,12)  x(11,0) 
 x(11,1)  x(11,2)  x(11,3)  x(11,4)  x(11,5)  x(11,6)  x(11,7)  x(11,8) 
 x(11,9)  x(11,10)  x(11,12)  x(12,0)  x(12,1)  x(12,2)  x(12,3)  x(12,4) 
 x(12,5)  x(12,6)  x(12,7)  x(12,8)  x(12,9)  x(12,10)  x(12,11)  alpha_1 
 alpha_2  alpha_3  alpha_4  alpha_5  alpha_6  alpha_7  alpha_8  alpha_9 
 alpha_10  alpha_11  alpha_12  beta_1  beta_2  beta_3  beta_4  y(1,1)  y(2,1) 
 y(3,1)  y(4,1)  y(5,1)  y(6,1)  y(7,1)  y(8,1)  y(9,1)  y(10,1)  y(11,1) 
 y(12,1)  y(1,2)  y(2,2)  y(3,2)  y(4,2)  y(5,2)  y(6,2)  y(7,2)  y(8,2) 
 y(9,2)  y(10,2)  y(11,2)  y(12,2)  y(1,3)  y(2,3)  y(3,3)  y(4,3)  y(5,3) 
 y(6,3)  y(7,3)  y(8,3)  y(9,3)  y(10,3)  y(11,3)  y(12,3)  y(1,4)  y(2,4) 
 y(3,4)  y(4,4)  y(5,4)  y(6,4)  y(7,4)  y(8,4)  y(9,4)  y(10,4)  y(11,4) 
 y(12,4) 
End
